WARNING: for repeatability, setting FPU to use double precision
============================[ Problem Statistics ]=============================
|                                                                             |
|  Number of variables:           100                                         |
|  Number of clauses:             449                                         |
|  Parse time:                   0.00 s                                       |
|  Eliminated clauses:           0.00 Mb                                      |
|  Simplification time:          0.00 s                                       |
|                                                                             |
============================[ Search Statistics ]==============================
| Conflicts |          ORIGINAL         |          LEARNT          | Progress |
|           |    Vars  Clauses Literals |    Limit  Clauses Lit/Cl |          |
===============================================================================
|       100 |      99      448     1352 |      164      100      8 |  0.010 % |
===============================================================================
restarts              : 2
conflicts             : 120            (41812 /sec)
decisions             : 158            (0.00 % random) (55052 /sec)
propagations          : 2807           (978049 /sec)
conflict literals     : 985            (8.46 % deleted)
Memory used           : 13.00 MB
CPU time              : 0.00287 s

SATISFIABLE
